1501
71 54 72 10 6 70 57 38 34 95 67 32 4 45 68 76 91 93 80 11 12 60 29 78 19 27 85 16 99 39 61 18 62 21 30 97 41 79 66 48 14 74 82 25 83 42 88 3 2 23 40 36 50 43 15 94 89 26 56 31 1 35 73 90 28 24 53 33 63 7 9 87 59 75 96 49 86 51 81 46 65 52 13 37 22 44 58 69 98 17 47 84 92 5 77 8 64 20 55 
